NAME: SYNTHETIC-C-n40-k5-highvar
COMMENT: Synthetic instance, optimal estimate: 456.8, min vehicles: 4
TYPE: CVRP
DIMENSION: 40
EDGE_WEIGHT_TYPE: EUC_2D
CAPACITY: 80
NODE_COORD_SECTION
1 0.0 0.0
2 27.1 18.8
3 21.5 1.4
4 29.9 1.9
5 21.2 -0.7
6 25.6 -1.9
7 27.9 -2.1
8 19.6 0.1
9 21.9 -3.9
10 21.0 54.4
11 18.1 43.7
12 12.5 47.8
13 11.5 34.8
14 16.0 49.2
15 18.6 37.3
16 15.8 50.1
17 14.5 51.7
18 -17.0 18.5
19 -18.6 13.1
20 -10.8 14.7
21 -29.1 9.4
22 -21.0 15.1
23 -12.0 15.5
24 -12.6 23.6
25 -17.5 13.8
26 -37.2 -18.0
27 -41.0 -13.8
28 -30.8 -14.3
29 -27.1 -30.9
30 -36.1 -19.7
31 -31.8 -15.2
32 -27.1 -19.2
33 -35.5 -24.4
34 9.2 -26.5
35 9.6 -19.2
36 6.2 -22.1
37 -6.7 -23.9
38 -0.8 -21.6
39 -1.2 -22.8
40 -1.3 -28.6
DEMAND_SECTION
1 0
2 1
3 7
4 1
5 2
6 10
7 2
8 3
9 4
10 15
11 12
12 6
13 10
14 2
15 30
16 4
17 7
18 6
19 2
20 11
21 8
22 2
23 6
24 16
25 1
26 4
27 8
28 2
29 3
30 10
31 2
32 8
33 7
34 8
35 1
36 12
37 24
38 6
39 5
40 7
DEPOT_SECTION
1
-1
EOF
